
(set-option :produce-models true)
(set-option :inline-size-limit 10000)

(declare-const var0 String)

(push 1)
(assert (str.in.re var0 (re.* (re.range "\x01" "\xff"))))
(assert (str.in.re var0 (re.++ (re.++ re.begin-anchor (re.++ (re.* (re.union (str.to.re " ") (re.union (str.to.re "\u{0b}") (re.union (str.to.re "\u{0a}") (re.union (str.to.re "\u{0d}") (re.union (str.to.re "\u{09}") (str.to.re "\u{0c}"))))))) (re.++ ((_ re.capture 1) (re.union (re.union (re.union ((_ re.capture 2) (re.++ (str.to.re "3") (re.++ (str.to.re "1") (re.++ ((_ re.capture 3) (re.union (str.to.re "-") (re.union (str.to.re "/") (str.to.re " ")))) (re.++ ((_ re.capture 4) (re.union ((_ re.capture 5) (re.++ (re.union (re.++ (str.to.re "") (str.to.re "0")) (str.to.re "")) (re.union (str.to.re "1") (re.union (str.to.re "3") (re.union (str.to.re "5") (re.union (str.to.re "7") (str.to.re "8"))))))) ((_ re.capture 6) (re.++ (str.to.re "1") (re.union (str.to.re "0") (str.to.re "2")))))) (re.++ (_ re.reference 3) (re.++ (re.union (re.++ (str.to.re "") ((_ re.capture 7) (re.++ (re.range "0" "9") (re.range "0" "9")))) (str.to.re "")) (re.++ (re.range "0" "9") (re.range "0" "9"))))))))) ((_ re.capture 8) (re.++ ((_ re.capture 9) (re.union ((_ re.capture 10) (re.++ (re.union (re.++ (str.to.re "") (re.union (str.to.re "0") (re.union (str.to.re "1") (str.to.re "2")))) (str.to.re "")) (re.range "1" "9"))) ((_ re.capture 11) (re.++ (re.union (str.to.re "1") (re.union (str.to.re "2") (str.to.re "3"))) (str.to.re "0"))))) (re.++ ((_ re.capture 12) (re.union (str.to.re "-") (re.union (str.to.re "/") (str.to.re " ")))) (re.++ ((_ re.capture 13) (re.union ((_ re.capture 14) (re.++ (re.union (re.++ (str.to.re "") (str.to.re "0")) (str.to.re "")) (re.union (str.to.re "1") (re.range "3" "9")))) ((_ re.capture 15) (re.++ (str.to.re "1") (re.range "0" "2"))))) (re.++ (_ re.reference 12) (re.++ (re.union (re.++ (str.to.re "") ((_ re.capture 16) (re.++ (re.range "0" "9") (re.range "0" "9")))) (str.to.re "")) (re.++ (re.range "0" "9") (re.range "0" "9"))))))))) ((_ re.capture 17) (re.++ ((_ re.capture 18) (re.union (re.union ((_ re.capture 19) (re.++ (str.to.re "2") (re.range "0" "8"))) ((_ re.capture 20) (re.++ (str.to.re "1") (re.range "0" "9")))) ((_ re.capture 21) (re.++ (re.union (re.++ (str.to.re "") (str.to.re "0")) (str.to.re "")) (re.range "1" "9"))))) (re.++ ((_ re.capture 22) (re.union (str.to.re "-") (re.union (str.to.re "/") (str.to.re " ")))) (re.++ (re.union (re.++ (str.to.re "") (str.to.re "0")) (str.to.re "")) (re.++ (str.to.re "2") (re.++ (_ re.reference 22) (re.++ (re.union (re.++ (str.to.re "") ((_ re.capture 23) (re.++ (re.range "0" "9") (re.range "0" "9")))) (str.to.re "")) (re.++ (re.range "0" "9") (re.range "0" "9")))))))))) ((_ re.capture 24) (re.++ (str.to.re "2") (re.++ (str.to.re "9") (re.++ ((_ re.capture 25) (re.union (str.to.re "-") (re.union (str.to.re "/") (str.to.re " ")))) (re.++ (re.union (re.++ (str.to.re "") (str.to.re "0")) (str.to.re "")) (re.++ (str.to.re "2") (re.++ (_ re.reference 25) ((_ re.capture 26) (re.union ((_ re.capture 27) (re.++ (re.union (re.++ (str.to.re "") ((_ re.capture 28) (re.++ (re.range "0" "9") (re.range "0" "9")))) (str.to.re "")) ((_ re.capture 29) (re.union (re.union ((_ re.capture 30) (re.++ (re.union (str.to.re "2") (re.union (str.to.re "4") (re.union (str.to.re "6") (str.to.re "8")))) (re.union (str.to.re "0") (re.union (str.to.re "4") (str.to.re "8"))))) ((_ re.capture 31) (re.++ (re.union (str.to.re "1") (re.union (str.to.re "3") (re.union (str.to.re "5") (re.union (str.to.re "7") (str.to.re "9"))))) (re.union (str.to.re "2") (str.to.re "6"))))) ((_ re.capture 32) (re.++ (str.to.re "0") (re.union (str.to.re "4") (str.to.re "8")))))))) ((_ re.capture 33) (re.++ ((_ re.capture 34) (re.union ((_ re.capture 35) (re.++ (re.union (str.to.re "0") (re.union (str.to.re "2") (re.union (str.to.re "4") (re.union (str.to.re "6") (str.to.re "8"))))) (re.union (str.to.re "0") (re.union (str.to.re "4") (str.to.re "8"))))) ((_ re.capture 36) (re.++ (re.union (str.to.re "1") (re.union (str.to.re "3") (re.union (str.to.re "5") (re.union (str.to.re "7") (str.to.re "9"))))) (re.union (str.to.re "2") (str.to.re "6")))))) (re.++ (str.to.re "0") (str.to.re "0"))))))))))))))) (re.* (re.union (str.to.re " ") (re.union (str.to.re "\u{0b}") (re.union (str.to.re "\u{0a}") (re.union (str.to.re "\u{0d}") (re.union (str.to.re "\u{09}") (str.to.re "\u{0c}")))))))))) re.end-anchor)))	; match!==null
(assert (not (str.in.re ((_ str.extract 1) var0 (re.++ (re.++ re.begin-anchor (re.++ (re.* (re.union (str.to.re " ") (re.union (str.to.re "\u{0b}") (re.union (str.to.re "\u{0a}") (re.union (str.to.re "\u{0d}") (re.union (str.to.re "\u{09}") (str.to.re "\u{0c}"))))))) (re.++ ((_ re.capture 1) (re.union (re.union (re.union ((_ re.capture 2) (re.++ (str.to.re "3") (re.++ (str.to.re "1") (re.++ ((_ re.capture 3) (re.union (str.to.re "-") (re.union (str.to.re "/") (str.to.re " ")))) (re.++ ((_ re.capture 4) (re.union ((_ re.capture 5) (re.++ (re.union (re.++ (str.to.re "") (str.to.re "0")) (str.to.re "")) (re.union (str.to.re "1") (re.union (str.to.re "3") (re.union (str.to.re "5") (re.union (str.to.re "7") (str.to.re "8"))))))) ((_ re.capture 6) (re.++ (str.to.re "1") (re.union (str.to.re "0") (str.to.re "2")))))) (re.++ (_ re.reference 3) (re.++ (re.union (re.++ (str.to.re "") ((_ re.capture 7) (re.++ (re.range "0" "9") (re.range "0" "9")))) (str.to.re "")) (re.++ (re.range "0" "9") (re.range "0" "9"))))))))) ((_ re.capture 8) (re.++ ((_ re.capture 9) (re.union ((_ re.capture 10) (re.++ (re.union (re.++ (str.to.re "") (re.union (str.to.re "0") (re.union (str.to.re "1") (str.to.re "2")))) (str.to.re "")) (re.range "1" "9"))) ((_ re.capture 11) (re.++ (re.union (str.to.re "1") (re.union (str.to.re "2") (str.to.re "3"))) (str.to.re "0"))))) (re.++ ((_ re.capture 12) (re.union (str.to.re "-") (re.union (str.to.re "/") (str.to.re " ")))) (re.++ ((_ re.capture 13) (re.union ((_ re.capture 14) (re.++ (re.union (re.++ (str.to.re "") (str.to.re "0")) (str.to.re "")) (re.union (str.to.re "1") (re.range "3" "9")))) ((_ re.capture 15) (re.++ (str.to.re "1") (re.range "0" "2"))))) (re.++ (_ re.reference 12) (re.++ (re.union (re.++ (str.to.re "") ((_ re.capture 16) (re.++ (re.range "0" "9") (re.range "0" "9")))) (str.to.re "")) (re.++ (re.range "0" "9") (re.range "0" "9"))))))))) ((_ re.capture 17) (re.++ ((_ re.capture 18) (re.union (re.union ((_ re.capture 19) (re.++ (str.to.re "2") (re.range "0" "8"))) ((_ re.capture 20) (re.++ (str.to.re "1") (re.range "0" "9")))) ((_ re.capture 21) (re.++ (re.union (re.++ (str.to.re "") (str.to.re "0")) (str.to.re "")) (re.range "1" "9"))))) (re.++ ((_ re.capture 22) (re.union (str.to.re "-") (re.union (str.to.re "/") (str.to.re " ")))) (re.++ (re.union (re.++ (str.to.re "") (str.to.re "0")) (str.to.re "")) (re.++ (str.to.re "2") (re.++ (_ re.reference 22) (re.++ (re.union (re.++ (str.to.re "") ((_ re.capture 23) (re.++ (re.range "0" "9") (re.range "0" "9")))) (str.to.re "")) (re.++ (re.range "0" "9") (re.range "0" "9")))))))))) ((_ re.capture 24) (re.++ (str.to.re "2") (re.++ (str.to.re "9") (re.++ ((_ re.capture 25) (re.union (str.to.re "-") (re.union (str.to.re "/") (str.to.re " ")))) (re.++ (re.union (re.++ (str.to.re "") (str.to.re "0")) (str.to.re "")) (re.++ (str.to.re "2") (re.++ (_ re.reference 25) ((_ re.capture 26) (re.union ((_ re.capture 27) (re.++ (re.union (re.++ (str.to.re "") ((_ re.capture 28) (re.++ (re.range "0" "9") (re.range "0" "9")))) (str.to.re "")) ((_ re.capture 29) (re.union (re.union ((_ re.capture 30) (re.++ (re.union (str.to.re "2") (re.union (str.to.re "4") (re.union (str.to.re "6") (str.to.re "8")))) (re.union (str.to.re "0") (re.union (str.to.re "4") (str.to.re "8"))))) ((_ re.capture 31) (re.++ (re.union (str.to.re "1") (re.union (str.to.re "3") (re.union (str.to.re "5") (re.union (str.to.re "7") (str.to.re "9"))))) (re.union (str.to.re "2") (str.to.re "6"))))) ((_ re.capture 32) (re.++ (str.to.re "0") (re.union (str.to.re "4") (str.to.re "8")))))))) ((_ re.capture 33) (re.++ ((_ re.capture 34) (re.union ((_ re.capture 35) (re.++ (re.union (str.to.re "0") (re.union (str.to.re "2") (re.union (str.to.re "4") (re.union (str.to.re "6") (str.to.re "8"))))) (re.union (str.to.re "0") (re.union (str.to.re "4") (str.to.re "8"))))) ((_ re.capture 36) (re.++ (re.union (str.to.re "1") (re.union (str.to.re "3") (re.union (str.to.re "5") (re.union (str.to.re "7") (str.to.re "9"))))) (re.union (str.to.re "2") (str.to.re "6")))))) (re.++ (str.to.re "0") (str.to.re "0"))))))))))))))) (re.* (re.union (str.to.re " ") (re.union (str.to.re "\u{0b}") (re.union (str.to.re "\u{0a}") (re.union (str.to.re "\u{0d}") (re.union (str.to.re "\u{09}") (str.to.re "\u{0c}")))))))))) re.end-anchor)) (str.to.re "\x00"))))
;match[1]!==null
(assert (str.in.re ((_ str.extract 1) var0 (re.++ (re.++ re.begin-anchor (re.++ (re.* (re.union (str.to.re " ") (re.union (str.to.re "\u{0b}") (re.union (str.to.re "\u{0a}") (re.union (str.to.re "\u{0d}") (re.union (str.to.re "\u{09}") (str.to.re "\u{0c}"))))))) (re.++ ((_ re.capture 1) (re.union (re.union (re.union ((_ re.capture 2) (re.++ (str.to.re "3") (re.++ (str.to.re "1") (re.++ ((_ re.capture 3) (re.union (str.to.re "-") (re.union (str.to.re "/") (str.to.re " ")))) (re.++ ((_ re.capture 4) (re.union ((_ re.capture 5) (re.++ (re.union (re.++ (str.to.re "") (str.to.re "0")) (str.to.re "")) (re.union (str.to.re "1") (re.union (str.to.re "3") (re.union (str.to.re "5") (re.union (str.to.re "7") (str.to.re "8"))))))) ((_ re.capture 6) (re.++ (str.to.re "1") (re.union (str.to.re "0") (str.to.re "2")))))) (re.++ (_ re.reference 3) (re.++ (re.union (re.++ (str.to.re "") ((_ re.capture 7) (re.++ (re.range "0" "9") (re.range "0" "9")))) (str.to.re "")) (re.++ (re.range "0" "9") (re.range "0" "9"))))))))) ((_ re.capture 8) (re.++ ((_ re.capture 9) (re.union ((_ re.capture 10) (re.++ (re.union (re.++ (str.to.re "") (re.union (str.to.re "0") (re.union (str.to.re "1") (str.to.re "2")))) (str.to.re "")) (re.range "1" "9"))) ((_ re.capture 11) (re.++ (re.union (str.to.re "1") (re.union (str.to.re "2") (str.to.re "3"))) (str.to.re "0"))))) (re.++ ((_ re.capture 12) (re.union (str.to.re "-") (re.union (str.to.re "/") (str.to.re " ")))) (re.++ ((_ re.capture 13) (re.union ((_ re.capture 14) (re.++ (re.union (re.++ (str.to.re "") (str.to.re "0")) (str.to.re "")) (re.union (str.to.re "1") (re.range "3" "9")))) ((_ re.capture 15) (re.++ (str.to.re "1") (re.range "0" "2"))))) (re.++ (_ re.reference 12) (re.++ (re.union (re.++ (str.to.re "") ((_ re.capture 16) (re.++ (re.range "0" "9") (re.range "0" "9")))) (str.to.re "")) (re.++ (re.range "0" "9") (re.range "0" "9"))))))))) ((_ re.capture 17) (re.++ ((_ re.capture 18) (re.union (re.union ((_ re.capture 19) (re.++ (str.to.re "2") (re.range "0" "8"))) ((_ re.capture 20) (re.++ (str.to.re "1") (re.range "0" "9")))) ((_ re.capture 21) (re.++ (re.union (re.++ (str.to.re "") (str.to.re "0")) (str.to.re "")) (re.range "1" "9"))))) (re.++ ((_ re.capture 22) (re.union (str.to.re "-") (re.union (str.to.re "/") (str.to.re " ")))) (re.++ (re.union (re.++ (str.to.re "") (str.to.re "0")) (str.to.re "")) (re.++ (str.to.re "2") (re.++ (_ re.reference 22) (re.++ (re.union (re.++ (str.to.re "") ((_ re.capture 23) (re.++ (re.range "0" "9") (re.range "0" "9")))) (str.to.re "")) (re.++ (re.range "0" "9") (re.range "0" "9")))))))))) ((_ re.capture 24) (re.++ (str.to.re "2") (re.++ (str.to.re "9") (re.++ ((_ re.capture 25) (re.union (str.to.re "-") (re.union (str.to.re "/") (str.to.re " ")))) (re.++ (re.union (re.++ (str.to.re "") (str.to.re "0")) (str.to.re "")) (re.++ (str.to.re "2") (re.++ (_ re.reference 25) ((_ re.capture 26) (re.union ((_ re.capture 27) (re.++ (re.union (re.++ (str.to.re "") ((_ re.capture 28) (re.++ (re.range "0" "9") (re.range "0" "9")))) (str.to.re "")) ((_ re.capture 29) (re.union (re.union ((_ re.capture 30) (re.++ (re.union (str.to.re "2") (re.union (str.to.re "4") (re.union (str.to.re "6") (str.to.re "8")))) (re.union (str.to.re "0") (re.union (str.to.re "4") (str.to.re "8"))))) ((_ re.capture 31) (re.++ (re.union (str.to.re "1") (re.union (str.to.re "3") (re.union (str.to.re "5") (re.union (str.to.re "7") (str.to.re "9"))))) (re.union (str.to.re "2") (str.to.re "6"))))) ((_ re.capture 32) (re.++ (str.to.re "0") (re.union (str.to.re "4") (str.to.re "8")))))))) ((_ re.capture 33) (re.++ ((_ re.capture 34) (re.union ((_ re.capture 35) (re.++ (re.union (str.to.re "0") (re.union (str.to.re "2") (re.union (str.to.re "4") (re.union (str.to.re "6") (str.to.re "8"))))) (re.union (str.to.re "0") (re.union (str.to.re "4") (str.to.re "8"))))) ((_ re.capture 36) (re.++ (re.union (str.to.re "1") (re.union (str.to.re "3") (re.union (str.to.re "5") (re.union (str.to.re "7") (str.to.re "9"))))) (re.union (str.to.re "2") (str.to.re "6")))))) (re.++ (str.to.re "0") (str.to.re "0"))))))))))))))) (re.* (re.union (str.to.re " ") (re.union (str.to.re "\u{0b}") (re.union (str.to.re "\u{0a}") (re.union (str.to.re "\u{0d}") (re.union (str.to.re "\u{09}") (str.to.re "\u{0c}")))))))))) re.end-anchor)) (re.++ re.all(re.+ (re.range "a" "z")) re.all) ))
;/[a-z]+/.test(match[1]) == true
(check-sat)
(get-model)
(pop 1)
(push 1)
(assert (str.in.re var0 (re.* (re.range "\x01" "\xff"))))
(assert (str.in.re var0 (re.++ (re.++ re.begin-anchor (re.++ (re.* (re.union (str.to.re " ") (re.union (str.to.re "\u{0b}") (re.union (str.to.re "\u{0a}") (re.union (str.to.re "\u{0d}") (re.union (str.to.re "\u{09}") (str.to.re "\u{0c}"))))))) (re.++ ((_ re.capture 1) (re.union (re.union (re.union ((_ re.capture 2) (re.++ (str.to.re "3") (re.++ (str.to.re "1") (re.++ ((_ re.capture 3) (re.union (str.to.re "-") (re.union (str.to.re "/") (str.to.re " ")))) (re.++ ((_ re.capture 4) (re.union ((_ re.capture 5) (re.++ (re.union (re.++ (str.to.re "") (str.to.re "0")) (str.to.re "")) (re.union (str.to.re "1") (re.union (str.to.re "3") (re.union (str.to.re "5") (re.union (str.to.re "7") (str.to.re "8"))))))) ((_ re.capture 6) (re.++ (str.to.re "1") (re.union (str.to.re "0") (str.to.re "2")))))) (re.++ (_ re.reference 3) (re.++ (re.union (re.++ (str.to.re "") ((_ re.capture 7) (re.++ (re.range "0" "9") (re.range "0" "9")))) (str.to.re "")) (re.++ (re.range "0" "9") (re.range "0" "9"))))))))) ((_ re.capture 8) (re.++ ((_ re.capture 9) (re.union ((_ re.capture 10) (re.++ (re.union (re.++ (str.to.re "") (re.union (str.to.re "0") (re.union (str.to.re "1") (str.to.re "2")))) (str.to.re "")) (re.range "1" "9"))) ((_ re.capture 11) (re.++ (re.union (str.to.re "1") (re.union (str.to.re "2") (str.to.re "3"))) (str.to.re "0"))))) (re.++ ((_ re.capture 12) (re.union (str.to.re "-") (re.union (str.to.re "/") (str.to.re " ")))) (re.++ ((_ re.capture 13) (re.union ((_ re.capture 14) (re.++ (re.union (re.++ (str.to.re "") (str.to.re "0")) (str.to.re "")) (re.union (str.to.re "1") (re.range "3" "9")))) ((_ re.capture 15) (re.++ (str.to.re "1") (re.range "0" "2"))))) (re.++ (_ re.reference 12) (re.++ (re.union (re.++ (str.to.re "") ((_ re.capture 16) (re.++ (re.range "0" "9") (re.range "0" "9")))) (str.to.re "")) (re.++ (re.range "0" "9") (re.range "0" "9"))))))))) ((_ re.capture 17) (re.++ ((_ re.capture 18) (re.union (re.union ((_ re.capture 19) (re.++ (str.to.re "2") (re.range "0" "8"))) ((_ re.capture 20) (re.++ (str.to.re "1") (re.range "0" "9")))) ((_ re.capture 21) (re.++ (re.union (re.++ (str.to.re "") (str.to.re "0")) (str.to.re "")) (re.range "1" "9"))))) (re.++ ((_ re.capture 22) (re.union (str.to.re "-") (re.union (str.to.re "/") (str.to.re " ")))) (re.++ (re.union (re.++ (str.to.re "") (str.to.re "0")) (str.to.re "")) (re.++ (str.to.re "2") (re.++ (_ re.reference 22) (re.++ (re.union (re.++ (str.to.re "") ((_ re.capture 23) (re.++ (re.range "0" "9") (re.range "0" "9")))) (str.to.re "")) (re.++ (re.range "0" "9") (re.range "0" "9")))))))))) ((_ re.capture 24) (re.++ (str.to.re "2") (re.++ (str.to.re "9") (re.++ ((_ re.capture 25) (re.union (str.to.re "-") (re.union (str.to.re "/") (str.to.re " ")))) (re.++ (re.union (re.++ (str.to.re "") (str.to.re "0")) (str.to.re "")) (re.++ (str.to.re "2") (re.++ (_ re.reference 25) ((_ re.capture 26) (re.union ((_ re.capture 27) (re.++ (re.union (re.++ (str.to.re "") ((_ re.capture 28) (re.++ (re.range "0" "9") (re.range "0" "9")))) (str.to.re "")) ((_ re.capture 29) (re.union (re.union ((_ re.capture 30) (re.++ (re.union (str.to.re "2") (re.union (str.to.re "4") (re.union (str.to.re "6") (str.to.re "8")))) (re.union (str.to.re "0") (re.union (str.to.re "4") (str.to.re "8"))))) ((_ re.capture 31) (re.++ (re.union (str.to.re "1") (re.union (str.to.re "3") (re.union (str.to.re "5") (re.union (str.to.re "7") (str.to.re "9"))))) (re.union (str.to.re "2") (str.to.re "6"))))) ((_ re.capture 32) (re.++ (str.to.re "0") (re.union (str.to.re "4") (str.to.re "8")))))))) ((_ re.capture 33) (re.++ ((_ re.capture 34) (re.union ((_ re.capture 35) (re.++ (re.union (str.to.re "0") (re.union (str.to.re "2") (re.union (str.to.re "4") (re.union (str.to.re "6") (str.to.re "8"))))) (re.union (str.to.re "0") (re.union (str.to.re "4") (str.to.re "8"))))) ((_ re.capture 36) (re.++ (re.union (str.to.re "1") (re.union (str.to.re "3") (re.union (str.to.re "5") (re.union (str.to.re "7") (str.to.re "9"))))) (re.union (str.to.re "2") (str.to.re "6")))))) (re.++ (str.to.re "0") (str.to.re "0"))))))))))))))) (re.* (re.union (str.to.re " ") (re.union (str.to.re "\u{0b}") (re.union (str.to.re "\u{0a}") (re.union (str.to.re "\u{0d}") (re.union (str.to.re "\u{09}") (str.to.re "\u{0c}")))))))))) re.end-anchor)))	; match!==null
(assert (not (str.in.re ((_ str.extract 1) var0 (re.++ (re.++ re.begin-anchor (re.++ (re.* (re.union (str.to.re " ") (re.union (str.to.re "\u{0b}") (re.union (str.to.re "\u{0a}") (re.union (str.to.re "\u{0d}") (re.union (str.to.re "\u{09}") (str.to.re "\u{0c}"))))))) (re.++ ((_ re.capture 1) (re.union (re.union (re.union ((_ re.capture 2) (re.++ (str.to.re "3") (re.++ (str.to.re "1") (re.++ ((_ re.capture 3) (re.union (str.to.re "-") (re.union (str.to.re "/") (str.to.re " ")))) (re.++ ((_ re.capture 4) (re.union ((_ re.capture 5) (re.++ (re.union (re.++ (str.to.re "") (str.to.re "0")) (str.to.re "")) (re.union (str.to.re "1") (re.union (str.to.re "3") (re.union (str.to.re "5") (re.union (str.to.re "7") (str.to.re "8"))))))) ((_ re.capture 6) (re.++ (str.to.re "1") (re.union (str.to.re "0") (str.to.re "2")))))) (re.++ (_ re.reference 3) (re.++ (re.union (re.++ (str.to.re "") ((_ re.capture 7) (re.++ (re.range "0" "9") (re.range "0" "9")))) (str.to.re "")) (re.++ (re.range "0" "9") (re.range "0" "9"))))))))) ((_ re.capture 8) (re.++ ((_ re.capture 9) (re.union ((_ re.capture 10) (re.++ (re.union (re.++ (str.to.re "") (re.union (str.to.re "0") (re.union (str.to.re "1") (str.to.re "2")))) (str.to.re "")) (re.range "1" "9"))) ((_ re.capture 11) (re.++ (re.union (str.to.re "1") (re.union (str.to.re "2") (str.to.re "3"))) (str.to.re "0"))))) (re.++ ((_ re.capture 12) (re.union (str.to.re "-") (re.union (str.to.re "/") (str.to.re " ")))) (re.++ ((_ re.capture 13) (re.union ((_ re.capture 14) (re.++ (re.union (re.++ (str.to.re "") (str.to.re "0")) (str.to.re "")) (re.union (str.to.re "1") (re.range "3" "9")))) ((_ re.capture 15) (re.++ (str.to.re "1") (re.range "0" "2"))))) (re.++ (_ re.reference 12) (re.++ (re.union (re.++ (str.to.re "") ((_ re.capture 16) (re.++ (re.range "0" "9") (re.range "0" "9")))) (str.to.re "")) (re.++ (re.range "0" "9") (re.range "0" "9"))))))))) ((_ re.capture 17) (re.++ ((_ re.capture 18) (re.union (re.union ((_ re.capture 19) (re.++ (str.to.re "2") (re.range "0" "8"))) ((_ re.capture 20) (re.++ (str.to.re "1") (re.range "0" "9")))) ((_ re.capture 21) (re.++ (re.union (re.++ (str.to.re "") (str.to.re "0")) (str.to.re "")) (re.range "1" "9"))))) (re.++ ((_ re.capture 22) (re.union (str.to.re "-") (re.union (str.to.re "/") (str.to.re " ")))) (re.++ (re.union (re.++ (str.to.re "") (str.to.re "0")) (str.to.re "")) (re.++ (str.to.re "2") (re.++ (_ re.reference 22) (re.++ (re.union (re.++ (str.to.re "") ((_ re.capture 23) (re.++ (re.range "0" "9") (re.range "0" "9")))) (str.to.re "")) (re.++ (re.range "0" "9") (re.range "0" "9")))))))))) ((_ re.capture 24) (re.++ (str.to.re "2") (re.++ (str.to.re "9") (re.++ ((_ re.capture 25) (re.union (str.to.re "-") (re.union (str.to.re "/") (str.to.re " ")))) (re.++ (re.union (re.++ (str.to.re "") (str.to.re "0")) (str.to.re "")) (re.++ (str.to.re "2") (re.++ (_ re.reference 25) ((_ re.capture 26) (re.union ((_ re.capture 27) (re.++ (re.union (re.++ (str.to.re "") ((_ re.capture 28) (re.++ (re.range "0" "9") (re.range "0" "9")))) (str.to.re "")) ((_ re.capture 29) (re.union (re.union ((_ re.capture 30) (re.++ (re.union (str.to.re "2") (re.union (str.to.re "4") (re.union (str.to.re "6") (str.to.re "8")))) (re.union (str.to.re "0") (re.union (str.to.re "4") (str.to.re "8"))))) ((_ re.capture 31) (re.++ (re.union (str.to.re "1") (re.union (str.to.re "3") (re.union (str.to.re "5") (re.union (str.to.re "7") (str.to.re "9"))))) (re.union (str.to.re "2") (str.to.re "6"))))) ((_ re.capture 32) (re.++ (str.to.re "0") (re.union (str.to.re "4") (str.to.re "8")))))))) ((_ re.capture 33) (re.++ ((_ re.capture 34) (re.union ((_ re.capture 35) (re.++ (re.union (str.to.re "0") (re.union (str.to.re "2") (re.union (str.to.re "4") (re.union (str.to.re "6") (str.to.re "8"))))) (re.union (str.to.re "0") (re.union (str.to.re "4") (str.to.re "8"))))) ((_ re.capture 36) (re.++ (re.union (str.to.re "1") (re.union (str.to.re "3") (re.union (str.to.re "5") (re.union (str.to.re "7") (str.to.re "9"))))) (re.union (str.to.re "2") (str.to.re "6")))))) (re.++ (str.to.re "0") (str.to.re "0"))))))))))))))) (re.* (re.union (str.to.re " ") (re.union (str.to.re "\u{0b}") (re.union (str.to.re "\u{0a}") (re.union (str.to.re "\u{0d}") (re.union (str.to.re "\u{09}") (str.to.re "\u{0c}")))))))))) re.end-anchor)) (str.to.re "\x00"))))	
;match[1]!==null
(assert (not (str.in.re ((_ str.extract 1) var0 (re.++ (re.++ re.begin-anchor (re.++ (re.* (re.union (str.to.re " ") (re.union (str.to.re "\u{0b}") (re.union (str.to.re "\u{0a}") (re.union (str.to.re "\u{0d}") (re.union (str.to.re "\u{09}") (str.to.re "\u{0c}"))))))) (re.++ ((_ re.capture 1) (re.union (re.union (re.union ((_ re.capture 2) (re.++ (str.to.re "3") (re.++ (str.to.re "1") (re.++ ((_ re.capture 3) (re.union (str.to.re "-") (re.union (str.to.re "/") (str.to.re " ")))) (re.++ ((_ re.capture 4) (re.union ((_ re.capture 5) (re.++ (re.union (re.++ (str.to.re "") (str.to.re "0")) (str.to.re "")) (re.union (str.to.re "1") (re.union (str.to.re "3") (re.union (str.to.re "5") (re.union (str.to.re "7") (str.to.re "8"))))))) ((_ re.capture 6) (re.++ (str.to.re "1") (re.union (str.to.re "0") (str.to.re "2")))))) (re.++ (_ re.reference 3) (re.++ (re.union (re.++ (str.to.re "") ((_ re.capture 7) (re.++ (re.range "0" "9") (re.range "0" "9")))) (str.to.re "")) (re.++ (re.range "0" "9") (re.range "0" "9"))))))))) ((_ re.capture 8) (re.++ ((_ re.capture 9) (re.union ((_ re.capture 10) (re.++ (re.union (re.++ (str.to.re "") (re.union (str.to.re "0") (re.union (str.to.re "1") (str.to.re "2")))) (str.to.re "")) (re.range "1" "9"))) ((_ re.capture 11) (re.++ (re.union (str.to.re "1") (re.union (str.to.re "2") (str.to.re "3"))) (str.to.re "0"))))) (re.++ ((_ re.capture 12) (re.union (str.to.re "-") (re.union (str.to.re "/") (str.to.re " ")))) (re.++ ((_ re.capture 13) (re.union ((_ re.capture 14) (re.++ (re.union (re.++ (str.to.re "") (str.to.re "0")) (str.to.re "")) (re.union (str.to.re "1") (re.range "3" "9")))) ((_ re.capture 15) (re.++ (str.to.re "1") (re.range "0" "2"))))) (re.++ (_ re.reference 12) (re.++ (re.union (re.++ (str.to.re "") ((_ re.capture 16) (re.++ (re.range "0" "9") (re.range "0" "9")))) (str.to.re "")) (re.++ (re.range "0" "9") (re.range "0" "9"))))))))) ((_ re.capture 17) (re.++ ((_ re.capture 18) (re.union (re.union ((_ re.capture 19) (re.++ (str.to.re "2") (re.range "0" "8"))) ((_ re.capture 20) (re.++ (str.to.re "1") (re.range "0" "9")))) ((_ re.capture 21) (re.++ (re.union (re.++ (str.to.re "") (str.to.re "0")) (str.to.re "")) (re.range "1" "9"))))) (re.++ ((_ re.capture 22) (re.union (str.to.re "-") (re.union (str.to.re "/") (str.to.re " ")))) (re.++ (re.union (re.++ (str.to.re "") (str.to.re "0")) (str.to.re "")) (re.++ (str.to.re "2") (re.++ (_ re.reference 22) (re.++ (re.union (re.++ (str.to.re "") ((_ re.capture 23) (re.++ (re.range "0" "9") (re.range "0" "9")))) (str.to.re "")) (re.++ (re.range "0" "9") (re.range "0" "9")))))))))) ((_ re.capture 24) (re.++ (str.to.re "2") (re.++ (str.to.re "9") (re.++ ((_ re.capture 25) (re.union (str.to.re "-") (re.union (str.to.re "/") (str.to.re " ")))) (re.++ (re.union (re.++ (str.to.re "") (str.to.re "0")) (str.to.re "")) (re.++ (str.to.re "2") (re.++ (_ re.reference 25) ((_ re.capture 26) (re.union ((_ re.capture 27) (re.++ (re.union (re.++ (str.to.re "") ((_ re.capture 28) (re.++ (re.range "0" "9") (re.range "0" "9")))) (str.to.re "")) ((_ re.capture 29) (re.union (re.union ((_ re.capture 30) (re.++ (re.union (str.to.re "2") (re.union (str.to.re "4") (re.union (str.to.re "6") (str.to.re "8")))) (re.union (str.to.re "0") (re.union (str.to.re "4") (str.to.re "8"))))) ((_ re.capture 31) (re.++ (re.union (str.to.re "1") (re.union (str.to.re "3") (re.union (str.to.re "5") (re.union (str.to.re "7") (str.to.re "9"))))) (re.union (str.to.re "2") (str.to.re "6"))))) ((_ re.capture 32) (re.++ (str.to.re "0") (re.union (str.to.re "4") (str.to.re "8")))))))) ((_ re.capture 33) (re.++ ((_ re.capture 34) (re.union ((_ re.capture 35) (re.++ (re.union (str.to.re "0") (re.union (str.to.re "2") (re.union (str.to.re "4") (re.union (str.to.re "6") (str.to.re "8"))))) (re.union (str.to.re "0") (re.union (str.to.re "4") (str.to.re "8"))))) ((_ re.capture 36) (re.++ (re.union (str.to.re "1") (re.union (str.to.re "3") (re.union (str.to.re "5") (re.union (str.to.re "7") (str.to.re "9"))))) (re.union (str.to.re "2") (str.to.re "6")))))) (re.++ (str.to.re "0") (str.to.re "0"))))))))))))))) (re.* (re.union (str.to.re " ") (re.union (str.to.re "\u{0b}") (re.union (str.to.re "\u{0a}") (re.union (str.to.re "\u{0d}") (re.union (str.to.re "\u{09}") (str.to.re "\u{0c}")))))))))) re.end-anchor)) (re.++ re.all(re.+ (re.range "a" "z")) re.all) )))
;/[a-z]+/.test(match[1]) == false	
(check-sat)
(get-model)
(pop 1)
(push 1)
(assert (str.in.re var0 (re.* (re.range "\x01" "\xff"))))
(assert (str.in.re var0 (re.++ (re.++ re.begin-anchor (re.++ (re.* (re.union (str.to.re " ") (re.union (str.to.re "\u{0b}") (re.union (str.to.re "\u{0a}") (re.union (str.to.re "\u{0d}") (re.union (str.to.re "\u{09}") (str.to.re "\u{0c}"))))))) (re.++ ((_ re.capture 1) (re.union (re.union (re.union ((_ re.capture 2) (re.++ (str.to.re "3") (re.++ (str.to.re "1") (re.++ ((_ re.capture 3) (re.union (str.to.re "-") (re.union (str.to.re "/") (str.to.re " ")))) (re.++ ((_ re.capture 4) (re.union ((_ re.capture 5) (re.++ (re.union (re.++ (str.to.re "") (str.to.re "0")) (str.to.re "")) (re.union (str.to.re "1") (re.union (str.to.re "3") (re.union (str.to.re "5") (re.union (str.to.re "7") (str.to.re "8"))))))) ((_ re.capture 6) (re.++ (str.to.re "1") (re.union (str.to.re "0") (str.to.re "2")))))) (re.++ (_ re.reference 3) (re.++ (re.union (re.++ (str.to.re "") ((_ re.capture 7) (re.++ (re.range "0" "9") (re.range "0" "9")))) (str.to.re "")) (re.++ (re.range "0" "9") (re.range "0" "9"))))))))) ((_ re.capture 8) (re.++ ((_ re.capture 9) (re.union ((_ re.capture 10) (re.++ (re.union (re.++ (str.to.re "") (re.union (str.to.re "0") (re.union (str.to.re "1") (str.to.re "2")))) (str.to.re "")) (re.range "1" "9"))) ((_ re.capture 11) (re.++ (re.union (str.to.re "1") (re.union (str.to.re "2") (str.to.re "3"))) (str.to.re "0"))))) (re.++ ((_ re.capture 12) (re.union (str.to.re "-") (re.union (str.to.re "/") (str.to.re " ")))) (re.++ ((_ re.capture 13) (re.union ((_ re.capture 14) (re.++ (re.union (re.++ (str.to.re "") (str.to.re "0")) (str.to.re "")) (re.union (str.to.re "1") (re.range "3" "9")))) ((_ re.capture 15) (re.++ (str.to.re "1") (re.range "0" "2"))))) (re.++ (_ re.reference 12) (re.++ (re.union (re.++ (str.to.re "") ((_ re.capture 16) (re.++ (re.range "0" "9") (re.range "0" "9")))) (str.to.re "")) (re.++ (re.range "0" "9") (re.range "0" "9"))))))))) ((_ re.capture 17) (re.++ ((_ re.capture 18) (re.union (re.union ((_ re.capture 19) (re.++ (str.to.re "2") (re.range "0" "8"))) ((_ re.capture 20) (re.++ (str.to.re "1") (re.range "0" "9")))) ((_ re.capture 21) (re.++ (re.union (re.++ (str.to.re "") (str.to.re "0")) (str.to.re "")) (re.range "1" "9"))))) (re.++ ((_ re.capture 22) (re.union (str.to.re "-") (re.union (str.to.re "/") (str.to.re " ")))) (re.++ (re.union (re.++ (str.to.re "") (str.to.re "0")) (str.to.re "")) (re.++ (str.to.re "2") (re.++ (_ re.reference 22) (re.++ (re.union (re.++ (str.to.re "") ((_ re.capture 23) (re.++ (re.range "0" "9") (re.range "0" "9")))) (str.to.re "")) (re.++ (re.range "0" "9") (re.range "0" "9")))))))))) ((_ re.capture 24) (re.++ (str.to.re "2") (re.++ (str.to.re "9") (re.++ ((_ re.capture 25) (re.union (str.to.re "-") (re.union (str.to.re "/") (str.to.re " ")))) (re.++ (re.union (re.++ (str.to.re "") (str.to.re "0")) (str.to.re "")) (re.++ (str.to.re "2") (re.++ (_ re.reference 25) ((_ re.capture 26) (re.union ((_ re.capture 27) (re.++ (re.union (re.++ (str.to.re "") ((_ re.capture 28) (re.++ (re.range "0" "9") (re.range "0" "9")))) (str.to.re "")) ((_ re.capture 29) (re.union (re.union ((_ re.capture 30) (re.++ (re.union (str.to.re "2") (re.union (str.to.re "4") (re.union (str.to.re "6") (str.to.re "8")))) (re.union (str.to.re "0") (re.union (str.to.re "4") (str.to.re "8"))))) ((_ re.capture 31) (re.++ (re.union (str.to.re "1") (re.union (str.to.re "3") (re.union (str.to.re "5") (re.union (str.to.re "7") (str.to.re "9"))))) (re.union (str.to.re "2") (str.to.re "6"))))) ((_ re.capture 32) (re.++ (str.to.re "0") (re.union (str.to.re "4") (str.to.re "8")))))))) ((_ re.capture 33) (re.++ ((_ re.capture 34) (re.union ((_ re.capture 35) (re.++ (re.union (str.to.re "0") (re.union (str.to.re "2") (re.union (str.to.re "4") (re.union (str.to.re "6") (str.to.re "8"))))) (re.union (str.to.re "0") (re.union (str.to.re "4") (str.to.re "8"))))) ((_ re.capture 36) (re.++ (re.union (str.to.re "1") (re.union (str.to.re "3") (re.union (str.to.re "5") (re.union (str.to.re "7") (str.to.re "9"))))) (re.union (str.to.re "2") (str.to.re "6")))))) (re.++ (str.to.re "0") (str.to.re "0"))))))))))))))) (re.* (re.union (str.to.re " ") (re.union (str.to.re "\u{0b}") (re.union (str.to.re "\u{0a}") (re.union (str.to.re "\u{0d}") (re.union (str.to.re "\u{09}") (str.to.re "\u{0c}")))))))))) re.end-anchor)))	; match!==null
(assert (str.in.re ((_ str.extract 1) var0 (re.++ (re.++ re.begin-anchor (re.++ (re.* (re.union (str.to.re " ") (re.union (str.to.re "\u{0b}") (re.union (str.to.re "\u{0a}") (re.union (str.to.re "\u{0d}") (re.union (str.to.re "\u{09}") (str.to.re "\u{0c}"))))))) (re.++ ((_ re.capture 1) (re.union (re.union (re.union ((_ re.capture 2) (re.++ (str.to.re "3") (re.++ (str.to.re "1") (re.++ ((_ re.capture 3) (re.union (str.to.re "-") (re.union (str.to.re "/") (str.to.re " ")))) (re.++ ((_ re.capture 4) (re.union ((_ re.capture 5) (re.++ (re.union (re.++ (str.to.re "") (str.to.re "0")) (str.to.re "")) (re.union (str.to.re "1") (re.union (str.to.re "3") (re.union (str.to.re "5") (re.union (str.to.re "7") (str.to.re "8"))))))) ((_ re.capture 6) (re.++ (str.to.re "1") (re.union (str.to.re "0") (str.to.re "2")))))) (re.++ (_ re.reference 3) (re.++ (re.union (re.++ (str.to.re "") ((_ re.capture 7) (re.++ (re.range "0" "9") (re.range "0" "9")))) (str.to.re "")) (re.++ (re.range "0" "9") (re.range "0" "9"))))))))) ((_ re.capture 8) (re.++ ((_ re.capture 9) (re.union ((_ re.capture 10) (re.++ (re.union (re.++ (str.to.re "") (re.union (str.to.re "0") (re.union (str.to.re "1") (str.to.re "2")))) (str.to.re "")) (re.range "1" "9"))) ((_ re.capture 11) (re.++ (re.union (str.to.re "1") (re.union (str.to.re "2") (str.to.re "3"))) (str.to.re "0"))))) (re.++ ((_ re.capture 12) (re.union (str.to.re "-") (re.union (str.to.re "/") (str.to.re " ")))) (re.++ ((_ re.capture 13) (re.union ((_ re.capture 14) (re.++ (re.union (re.++ (str.to.re "") (str.to.re "0")) (str.to.re "")) (re.union (str.to.re "1") (re.range "3" "9")))) ((_ re.capture 15) (re.++ (str.to.re "1") (re.range "0" "2"))))) (re.++ (_ re.reference 12) (re.++ (re.union (re.++ (str.to.re "") ((_ re.capture 16) (re.++ (re.range "0" "9") (re.range "0" "9")))) (str.to.re "")) (re.++ (re.range "0" "9") (re.range "0" "9"))))))))) ((_ re.capture 17) (re.++ ((_ re.capture 18) (re.union (re.union ((_ re.capture 19) (re.++ (str.to.re "2") (re.range "0" "8"))) ((_ re.capture 20) (re.++ (str.to.re "1") (re.range "0" "9")))) ((_ re.capture 21) (re.++ (re.union (re.++ (str.to.re "") (str.to.re "0")) (str.to.re "")) (re.range "1" "9"))))) (re.++ ((_ re.capture 22) (re.union (str.to.re "-") (re.union (str.to.re "/") (str.to.re " ")))) (re.++ (re.union (re.++ (str.to.re "") (str.to.re "0")) (str.to.re "")) (re.++ (str.to.re "2") (re.++ (_ re.reference 22) (re.++ (re.union (re.++ (str.to.re "") ((_ re.capture 23) (re.++ (re.range "0" "9") (re.range "0" "9")))) (str.to.re "")) (re.++ (re.range "0" "9") (re.range "0" "9")))))))))) ((_ re.capture 24) (re.++ (str.to.re "2") (re.++ (str.to.re "9") (re.++ ((_ re.capture 25) (re.union (str.to.re "-") (re.union (str.to.re "/") (str.to.re " ")))) (re.++ (re.union (re.++ (str.to.re "") (str.to.re "0")) (str.to.re "")) (re.++ (str.to.re "2") (re.++ (_ re.reference 25) ((_ re.capture 26) (re.union ((_ re.capture 27) (re.++ (re.union (re.++ (str.to.re "") ((_ re.capture 28) (re.++ (re.range "0" "9") (re.range "0" "9")))) (str.to.re "")) ((_ re.capture 29) (re.union (re.union ((_ re.capture 30) (re.++ (re.union (str.to.re "2") (re.union (str.to.re "4") (re.union (str.to.re "6") (str.to.re "8")))) (re.union (str.to.re "0") (re.union (str.to.re "4") (str.to.re "8"))))) ((_ re.capture 31) (re.++ (re.union (str.to.re "1") (re.union (str.to.re "3") (re.union (str.to.re "5") (re.union (str.to.re "7") (str.to.re "9"))))) (re.union (str.to.re "2") (str.to.re "6"))))) ((_ re.capture 32) (re.++ (str.to.re "0") (re.union (str.to.re "4") (str.to.re "8")))))))) ((_ re.capture 33) (re.++ ((_ re.capture 34) (re.union ((_ re.capture 35) (re.++ (re.union (str.to.re "0") (re.union (str.to.re "2") (re.union (str.to.re "4") (re.union (str.to.re "6") (str.to.re "8"))))) (re.union (str.to.re "0") (re.union (str.to.re "4") (str.to.re "8"))))) ((_ re.capture 36) (re.++ (re.union (str.to.re "1") (re.union (str.to.re "3") (re.union (str.to.re "5") (re.union (str.to.re "7") (str.to.re "9"))))) (re.union (str.to.re "2") (str.to.re "6")))))) (re.++ (str.to.re "0") (str.to.re "0"))))))))))))))) (re.* (re.union (str.to.re " ") (re.union (str.to.re "\u{0b}") (re.union (str.to.re "\u{0a}") (re.union (str.to.re "\u{0d}") (re.union (str.to.re "\u{09}") (str.to.re "\u{0c}")))))))))) re.end-anchor)) (str.to.re "\x00")))
;match[1]==null
(check-sat)
(get-model)
(pop 1)
(push 1)
(assert (str.in.re var0 (re.* (re.range "\x01" "\xff"))))
(assert (not (str.in.re var0 (re.++ (re.++ re.begin-anchor (re.++ (re.* (re.union (str.to.re " ") (re.union (str.to.re "\u{0b}") (re.union (str.to.re "\u{0a}") (re.union (str.to.re "\u{0d}") (re.union (str.to.re "\u{09}") (str.to.re "\u{0c}"))))))) (re.++ ((_ re.capture 1) (re.union (re.union (re.union ((_ re.capture 2) (re.++ (str.to.re "3") (re.++ (str.to.re "1") (re.++ ((_ re.capture 3) (re.union (str.to.re "-") (re.union (str.to.re "/") (str.to.re " ")))) (re.++ ((_ re.capture 4) (re.union ((_ re.capture 5) (re.++ (re.union (re.++ (str.to.re "") (str.to.re "0")) (str.to.re "")) (re.union (str.to.re "1") (re.union (str.to.re "3") (re.union (str.to.re "5") (re.union (str.to.re "7") (str.to.re "8"))))))) ((_ re.capture 6) (re.++ (str.to.re "1") (re.union (str.to.re "0") (str.to.re "2")))))) (re.++ (_ re.reference 3) (re.++ (re.union (re.++ (str.to.re "") ((_ re.capture 7) (re.++ (re.range "0" "9") (re.range "0" "9")))) (str.to.re "")) (re.++ (re.range "0" "9") (re.range "0" "9"))))))))) ((_ re.capture 8) (re.++ ((_ re.capture 9) (re.union ((_ re.capture 10) (re.++ (re.union (re.++ (str.to.re "") (re.union (str.to.re "0") (re.union (str.to.re "1") (str.to.re "2")))) (str.to.re "")) (re.range "1" "9"))) ((_ re.capture 11) (re.++ (re.union (str.to.re "1") (re.union (str.to.re "2") (str.to.re "3"))) (str.to.re "0"))))) (re.++ ((_ re.capture 12) (re.union (str.to.re "-") (re.union (str.to.re "/") (str.to.re " ")))) (re.++ ((_ re.capture 13) (re.union ((_ re.capture 14) (re.++ (re.union (re.++ (str.to.re "") (str.to.re "0")) (str.to.re "")) (re.union (str.to.re "1") (re.range "3" "9")))) ((_ re.capture 15) (re.++ (str.to.re "1") (re.range "0" "2"))))) (re.++ (_ re.reference 12) (re.++ (re.union (re.++ (str.to.re "") ((_ re.capture 16) (re.++ (re.range "0" "9") (re.range "0" "9")))) (str.to.re "")) (re.++ (re.range "0" "9") (re.range "0" "9"))))))))) ((_ re.capture 17) (re.++ ((_ re.capture 18) (re.union (re.union ((_ re.capture 19) (re.++ (str.to.re "2") (re.range "0" "8"))) ((_ re.capture 20) (re.++ (str.to.re "1") (re.range "0" "9")))) ((_ re.capture 21) (re.++ (re.union (re.++ (str.to.re "") (str.to.re "0")) (str.to.re "")) (re.range "1" "9"))))) (re.++ ((_ re.capture 22) (re.union (str.to.re "-") (re.union (str.to.re "/") (str.to.re " ")))) (re.++ (re.union (re.++ (str.to.re "") (str.to.re "0")) (str.to.re "")) (re.++ (str.to.re "2") (re.++ (_ re.reference 22) (re.++ (re.union (re.++ (str.to.re "") ((_ re.capture 23) (re.++ (re.range "0" "9") (re.range "0" "9")))) (str.to.re "")) (re.++ (re.range "0" "9") (re.range "0" "9")))))))))) ((_ re.capture 24) (re.++ (str.to.re "2") (re.++ (str.to.re "9") (re.++ ((_ re.capture 25) (re.union (str.to.re "-") (re.union (str.to.re "/") (str.to.re " ")))) (re.++ (re.union (re.++ (str.to.re "") (str.to.re "0")) (str.to.re "")) (re.++ (str.to.re "2") (re.++ (_ re.reference 25) ((_ re.capture 26) (re.union ((_ re.capture 27) (re.++ (re.union (re.++ (str.to.re "") ((_ re.capture 28) (re.++ (re.range "0" "9") (re.range "0" "9")))) (str.to.re "")) ((_ re.capture 29) (re.union (re.union ((_ re.capture 30) (re.++ (re.union (str.to.re "2") (re.union (str.to.re "4") (re.union (str.to.re "6") (str.to.re "8")))) (re.union (str.to.re "0") (re.union (str.to.re "4") (str.to.re "8"))))) ((_ re.capture 31) (re.++ (re.union (str.to.re "1") (re.union (str.to.re "3") (re.union (str.to.re "5") (re.union (str.to.re "7") (str.to.re "9"))))) (re.union (str.to.re "2") (str.to.re "6"))))) ((_ re.capture 32) (re.++ (str.to.re "0") (re.union (str.to.re "4") (str.to.re "8")))))))) ((_ re.capture 33) (re.++ ((_ re.capture 34) (re.union ((_ re.capture 35) (re.++ (re.union (str.to.re "0") (re.union (str.to.re "2") (re.union (str.to.re "4") (re.union (str.to.re "6") (str.to.re "8"))))) (re.union (str.to.re "0") (re.union (str.to.re "4") (str.to.re "8"))))) ((_ re.capture 36) (re.++ (re.union (str.to.re "1") (re.union (str.to.re "3") (re.union (str.to.re "5") (re.union (str.to.re "7") (str.to.re "9"))))) (re.union (str.to.re "2") (str.to.re "6")))))) (re.++ (str.to.re "0") (str.to.re "0"))))))))))))))) (re.* (re.union (str.to.re " ") (re.union (str.to.re "\u{0b}") (re.union (str.to.re "\u{0a}") (re.union (str.to.re "\u{0d}") (re.union (str.to.re "\u{09}") (str.to.re "\u{0c}")))))))))) re.end-anchor))))	; match == null
(check-sat)
(get-model)
(pop 1)
(exit)
